[1, 2, 3, 4, 5, 10, 10, 7, 9, 8, 8, 10, 15, 13, 14, 13, 25, 26, 20, 21, 20, 22, 25, 24, 22, 19, 27, 29, 28, 29, 27, 27, 32, 29, 34, 36, 38, 37, 39, 41, 43, 42, 43, 44, 44, 46, 44, 41, 44, 56, 54, 50, 51, 53, 56, 59, 58, 57, 59, 60, 62, 67, 67, 67, 69, 68, 67, 69, 70, 66, 74, 73, 72, 71, 76, 76, 77, 78, 79, 98, 92, 84, 85, 83, 88, 87, 86, 91, 90, 81, 82, 89, 93, 94, 96, 98, 97, 96, 101, 102, 103, 99, 100, 102, 100, 111, 108, 102, 109, 112, 112, 113, 111, 116, 114, 116, 122, 121, 121, 122, 121, 120, 119, 120, 124, 126, 124, 131, 130, 129, 128, 130, 131, 133, 128, 134, 138, 137, 137, 140, 141, 142, 143, 145, 144, 146, 147, 148, 149, 145, 151, 152, 153, 154, 156, 156, 155, 158, 159, 159, 161, 162, 163, 165, 166, 164, 164, 165, 165, 164, 161, 173, 172, 173, 173, 177, 179, 176, 180, 180, 182, 181, 180, 182, 178, 179, 187, 189, 188, 193, 191, 194, 195, 190, 192, 196, 198, 199, 200, 197, 202, 201, 203, 204, 205, 205, 207, 207, 208, 210, 208, 214, 212, 213, 213, 214, 215, 218, 219, 220, 220, 221, 223, 224, 225, 226, 228, 227, 227, 231, 232, 233, 237, 234, 238, 239, 242, 238, 240, 244, 245, 236, 237, 241, 243, 247, 245, 247, 248, 251, 249, 252, 255, 256, 257, 253, 254, 259, 258, 260, 261, 262, 264, 265, 264, 264, 265, 265, 264, 262, 261, 273, 277, 274, 275, 272, 276, 275, 279, 280]
[6, 9, 9, 9, 18, 19, 19, 25, 27, 35, 38, 49, 52, 55, 55, 56, 57, 59, 65, 67, 71, 75, 75, 76, 77, 80, 81, 82, 83, 84, 85, 88, 89, 91, 93, 102, 107, 118, 119, 119, 120, 120, 120, 127, 127, 128, 139, 140, 142, 143, 146, 151, 152, 153, 154, 155, 155, 160, 160, 161, 162, 172, 172, 172, 175, 178, 178, 180, 181, 181, 188, 189, 192, 194, 195, 197, 201, 202, 209, 211, 218, 222, 223, 226, 226, 227, 233, 236, 236, 237, 237, 239, 243, 248, 250, 251, 252, 255, 259, 263, 263, 263, 263, 273, 275, 276, 278, 279, 280, 282, 286, 286, 287, 291, 291, 292, 293, 297, 302, 315, 324, 329, 331, 335, 337, 337, 338, 344, 346, 347, 347, 355, 359, 360, 361, 362, 368, 371, 387, 404, 419, 420, 421, 426, 427, 429, 431, 432, 433, 439, 439, 442, 442, 442, 443, 443, 443, 450, 454, 455, 459, 460, 460, 467, 469, 470, 472, 476, 477, 481, 491, 491, 496, 498, 498, 503, 504, 506, 511, 514, 515, 515, 516, 516, 518, 519, 521, 522, 526, 532, 534, 535, 539, 539, 543, 543, 543, 552, 553, 553, 554, 557, 558, 562, 564, 570, 570, 572, 576, 577, 577, 581, 586, 586, 586, 595, 596, 598, 598, 603, 611, 615, 616, 616, 617, 619, 627, 629, 630, 633, 633, 634, 635, 639, 640, 641, 643, 650, 654, 656, 658, 660, 666, 668, 668, 670, 671, 685, 685, 686, 688, 688, 690, 691, 694, 694, 695, 701, 703, 704, 705, 706, 708, 715, 716, 716, 719, 722, 722, 722, 723, 729, 734, 736, 736, 739, 739, 745, 746, 747, 748, 750, 751, 752, 754, 760, 761, 769, 776, 782, 785, 790, 793, 794, 794, 797, 799, 808, 809, 810, 813, 815, 821, 821, 821, 821, 822, 822, 822, 829, 830, 832, 832, 834, 851, 855, 856, 856, 857, 858, 858, 862, 863, 863, 863, 865, 865, 865, 868, 872, 873, 874, 875, 877, 877, 882, 886, 893, 895, 895, 896, 898, 903, 903, 903, 903, 904, 905, 905, 906, 909, 910, 912, 912, 914, 915, 917, 918, 919, 920, 921, 923, 926, 930, 932, 932, 933, 935, 936, 936, 937, 939, 944, 948, 948, 955, 956, 956, 958, 958, 965, 969, 970, 974, 976, 978, 980, 982, 983, 984, 987, 988, 990, 997, 997, 999, 1000, 1000, 1000, 1001, 1001, 1001, 1002, 1013, 1014, 1018, 1018, 1023, 1025, 1026, 1027, 1031, 1035, 1037, 1039, 1041, 1041, 1043, 1043, 1046, 1049, 1049, 1054, 1057, 1064, 1068, 1070, 1073, 1073, 1081, 1081, 1084, 1087, 1088, 1090, 1095, 1098, 1098, 1100, 1100, 1100, 1100, 1101, 1101, 1101, 1108, 1109, 1110, 1112, 1113, 1117, 1118, 1123, 1123, 1124, 1129, 1134, 1136, 1137, 1137, 1143, 1149, 1151, 1153, 1158, 1158, 1166, 1169, 1172, 1181, 1185, 1186, 1189, 1192, 1193, 1194, 1196, 1201, 1203, 1204, 1206, 1208, 1211, 1211, 1213, 1213, 1224, 1226, 1226, 1227, 1227, 1239, 1239, 1252, 1252, 1253, 1256, 1257, 1261, 1263, 1264, 1266, 1268, 1269, 1271, 1271, 1273, 1274, 1274, 1277, 1278, 1279, 1279, 1279, 1280, 1280, 1280, 1288, 1288, 1288, 1293, 1296, 1303, 1308, 1309, 1310, 1311, 1314, 1315, 1316, 1320, 1320, 1328, 1328, 1330, 1334, 1336, 1340, 1341, 1346, 1349, 1351, 1352, 1352, 1356, 1357, 1359, 1362, 1362, 1367, 1368, 1369, 1372, 1374, 1375, 1377, 1377, 1380, 1380, 1380, 1387, 1388, 1389, 1394]
